     Program PWSCF v.6.5 starts on 20Aug2020 at 17:36: 3

     Reading input from espresso.pwi
Warning: card &IONS ignored
Warning: card / ignored
Warning: card &CELL ignored
Warning: card / ignored

     Current dimensions of program PWSCF are:
     Max number of different atomic species (ntypx) = 10
     Max number of k-points (npk) =  40000
     Max angular momentum in pseudopotentials (lmaxx) =  3

     IMPORTANT: XC functional enforced from input :
     Exchange-correlation= PBE
                           (   1   4   3   4   0   0   0)
     Any further DFT definition will be discarded
     Please, verify this is what you really want

     Subspace diagonalization in iterative solution of the eigenvalue problem:
     a serial algorithm will be used

     bravais-lattice index     =            0
     lattice parameter (alat)  =      16.3174  a.u.
     unit-cell volume          =   11446.3601 (a.u.)^3
     number of atoms/cell      =           93
     number of atomic types    =            4
     number of electrons       =       368.00
     number of Kohn-Sham states=          221
     kinetic-energy cutoff     =      40.0000  Ry
     charge density cutoff     =     160.0000  Ry
     convergence threshold     =      2.0E-11
     mixing beta               =       0.7000
     number of iterations used =           10  local-TF  mixing
     Exchange-correlation= PBE
                           (   1   4   3   4   0   0   0)

     celldm(1)=  16.317403  celldm(2)=   0.000000  celldm(3)=   0.000000
     celldm(4)=   0.000000  celldm(5)=   0.000000  celldm(6)=   0.000000

     crystal axes: (cart. coord. in units of alat)
               a(1) = (   1.000000   0.000000   0.000000 )
               a(2) = (   0.000000   0.634471   0.000000 )
               a(3) = (   0.000000   0.000000   4.152431 )

     reciprocal axes: (cart. coord. in units 2 pi/alat)
               b(1) = (  1.000000  0.000000  0.000000 )
               b(2) = (  0.000000  1.576116  0.000000 )
               b(3) = (  0.000000  0.000000  0.240823 )

     PseudoPot. # 1 for Si read from file:
     /home/mfh/Dokumente/Forschung_Wissenschaft/DFT_Plane_Waves/2019.12.01_SCF_LDOS_Preconditioning/calculations/paper/qe_pseudos/Si.pbe-hgh.UPF
     MD5 check sum: 644c0713ebe098a80395b411a455088e
     Pseudo is Norm-conserving, Zval =  4.0
     Generated in analytical, separable form
     Using radial grid of 1141 points,  3 beta functions with:
                l(1) =   0
                l(2) =   0
                l(3) =   1

     PseudoPot. # 2 for O  read from file:
     /home/mfh/Dokumente/Forschung_Wissenschaft/DFT_Plane_Waves/2019.12.01_SCF_LDOS_Preconditioning/calculations/paper/qe_pseudos/O.pbe-hgh.UPF
     MD5 check sum: 3e173e9dc2062953e4e95063157df22d
     Pseudo is Norm-conserving, Zval =  6.0
     Generated in analytical, separable form
     Using radial grid of 1095 points,  1 beta functions with:
                l(1) =   0

     PseudoPot. # 3 for H  read from file:
     /home/mfh/Dokumente/Forschung_Wissenschaft/DFT_Plane_Waves/2019.12.01_SCF_LDOS_Preconditioning/calculations/paper/qe_pseudos/H.pbe-hgh.UPF
     MD5 check sum: 50ae4f52d34cf16cdfed4bce9c5a191e
     Pseudo is Norm-conserving, Zval =  1.0
     Generated in analytical, separable form
     Using radial grid of  929 points,  0 beta functions with:

     PseudoPot. # 4 for Al read from file:
     /home/mfh/Dokumente/Forschung_Wissenschaft/DFT_Plane_Waves/2019.12.01_SCF_LDOS_Preconditioning/calculations/paper/qe_pseudos/Al.pbe-hgh.UPF
     MD5 check sum: 802bf3c274188c2a448b709cf94527cc
     Pseudo is Norm-conserving, Zval =  3.0
     Generated in analytical, separable form
     Using radial grid of 1135 points,  3 beta functions with:
                l(1) =   0
                l(2) =   0
                l(3) =   1

     atomic species   valence    mass     pseudopotential
        Si             4.00    28.08500     Si( 1.00)
        O              6.00    15.99900     O ( 1.00)
        H              1.00     1.00800     H ( 1.00)
        Al             3.00    26.98154     Al( 1.00)

     No symmetry found

   Cartesian axes

     site n.     atom                  positions (alat units)
         1           Si  tau(   1) = (   0.7908591   0.1136122   0.2094892  )
         2           Si  tau(   2) = (   0.2619971   0.5365932   0.2094892  )
         3           Si  tau(   3) = (   0.5264281   0.3251024   0.0901469  )
         4           Si  tau(   4) = (   0.2908591   0.1136122   0.4981644  )
         5           Si  tau(   5) = (   0.7619971   0.5365932   0.4981644  )
         6           Si  tau(   6) = (   0.0264281   0.3251024   0.3788220  )
         7           Si  tau(   7) = (   0.7908591   0.1136122   0.7868395  )
         8           Si  tau(   8) = (   0.2619971   0.5365932   0.7868395  )
         9           Si  tau(   9) = (   0.5264281   0.3251024   0.6674971  )
        10           Si  tau(  10) = (   0.2908591   0.1136122   1.0755146  )
        11           Si  tau(  11) = (   0.7619971   0.5365932   1.0755146  )
        12           Si  tau(  12) = (   0.0264281   0.3251024   0.9561723  )
        13           Si  tau(  13) = (   0.7908591   0.1136122   1.3641898  )
        14           Si  tau(  14) = (   0.2619971   0.5365932   1.3641898  )
        15           Si  tau(  15) = (   0.5264281   0.3251024   1.2448474  )
        16           O   tau(  16) = (   0.7334461   0.6130679   0.3283968  )
        17           O   tau(  17) = (   0.9521576   0.1900869   0.2696471  )
        18           O   tau(  18) = (   0.3936806   0.4015777   0.1997565  )
        19           O   tau(  19) = (   0.3194101   0.0371369   0.3283968  )
        20           O   tau(  20) = (   0.1006986   0.4601178   0.2696471  )
        21           O   tau(  21) = (   0.6591756   0.2486271   0.1997565  )
        22           O   tau(  22) = (   0.2334461   0.6130679   0.6170720  )
        23           O   tau(  23) = (   0.4521576   0.1900869   0.5583222  )
        24           O   tau(  24) = (   0.8936806   0.4015777   0.4884317  )
        25           O   tau(  25) = (   0.8194101   0.0371369   0.6170720  )
        26           O   tau(  26) = (   0.6006986   0.4601178   0.5583222  )
        27           O   tau(  27) = (   0.1591756   0.2486271   0.4884317  )
        28           O   tau(  28) = (   0.7334461   0.6130679   0.9057471  )
        29           O   tau(  29) = (   0.9521576   0.1900869   0.8469974  )
        30           O   tau(  30) = (   0.3936806   0.4015777   0.7771068  )
        31           O   tau(  31) = (   0.3194101   0.0371369   0.9057471  )
        32           O   tau(  32) = (   0.1006986   0.4601178   0.8469974  )
        33           O   tau(  33) = (   0.6591756   0.2486271   0.7771068  )
        34           O   tau(  34) = (   0.2334461   0.6130679   1.1944222  )
        35           O   tau(  35) = (   0.4521576   0.1900869   1.1356725  )
        36           O   tau(  36) = (   0.8936806   0.4015777   1.0657819  )
        37           O   tau(  37) = (   0.8194101   0.0371369   1.1944222  )
        38           O   tau(  38) = (   0.6006986   0.4601178   1.1356725  )
        39           O   tau(  39) = (   0.1591756   0.2486271   1.0657819  )
        40           O   tau(  40) = (   0.7334461   0.6130679   1.4830974  )
        41           O   tau(  41) = (   0.9521576   0.1900869   1.4243476  )
        42           O   tau(  42) = (   0.3936806   0.4015777   1.3544571  )
        43           O   tau(  43) = (   0.3194101   0.0371369   1.4830974  )
        44           O   tau(  44) = (   0.1006986   0.4601178   1.4243476  )
        45           O   tau(  45) = (   0.6591756   0.2486271   1.3544571  )
        46           H   tau(  46) = (   0.2619971   0.5365932   0.0994693  )
        47           H   tau(  47) = (   0.7908591   0.1136122   0.0994693  )
        48           H   tau(  48) = (   0.4743134   0.2440351   0.0380322  )
        49           H   tau(  49) = (   0.5727523   0.4061697   0.0380322  )
        50           H   tau(  50) = (   0.7334461   0.6130679   1.5931173  )
        51           H   tau(  51) = (   0.9521576   0.1900869   1.5343676  )
        52           H   tau(  52) = (   0.3194101   0.0371369   1.5931173  )
        53           H   tau(  53) = (   0.1006986   0.4601178   1.5343676  )
        54           Al  tau(  54) = (   0.1289851   0.1641283   1.8059524  )
        55           Al  tau(  55) = (   0.3789851   0.4813639   1.8059524  )
        56           Al  tau(  56) = (   0.1289851   0.4813639   2.0404686  )
        57           Al  tau(  57) = (   0.3789851   0.1641283   2.0404686  )
        58           Al  tau(  58) = (   0.1289851   0.1641283   2.2749848  )
        59           Al  tau(  59) = (   0.3789851   0.4813639   2.2749848  )
        60           Al  tau(  60) = (   0.1289851   0.4813639   2.5095010  )
[...]
        79           Al  tau(  79) = (   0.8789851   0.4813639   2.2749848  )
        80           Al  tau(  80) = (   0.6289851   0.4813639   2.5095010  )
        81           Al  tau(  81) = (   0.8789851   0.1641283   2.5095010  )
        82           Al  tau(  82) = (   0.6289851   0.1641283   2.7440172  )
        83           Al  tau(  83) = (   0.8789851   0.4813639   2.7440172  )
        84           Al  tau(  84) = (   0.6289851   0.4813639   2.9785334  )
        85           Al  tau(  85) = (   0.8789851   0.1641283   2.9785334  )
        86           Al  tau(  86) = (   0.6289851   0.1641283   3.2130496  )
        87           Al  tau(  87) = (   0.8789851   0.4813639   3.2130496  )
        88           Al  tau(  88) = (   0.6289851   0.4813639   3.4475658  )
        89           Al  tau(  89) = (   0.8789851   0.1641283   3.4475658  )
        90           Al  tau(  90) = (   0.6289851   0.1641283   3.6820820  )
        91           Al  tau(  91) = (   0.8789851   0.4813639   3.6820820  )
        92           Al  tau(  92) = (   0.6289851   0.4813639   3.9165982  )
        93           Al  tau(  93) = (   0.8789851   0.1641283   3.9165982  )

     number of k points=     8  Gaussian smearing, width (Ry)=  0.0020
                       cart. coord. in units 2pi/alat
        k(    1) = (   0.0000000   0.0000000   0.0000000), wk =   0.1333333
        k(    2) = (   0.0000000   0.3152232   0.0000000), wk =   0.2666667
        k(    3) = (   0.0000000   0.6304464   0.0000000), wk =   0.2666667
        k(    4) = (   0.3333333   0.0000000   0.0000000), wk =   0.2666667
        k(    5) = (   0.3333333   0.3152232   0.0000000), wk =   0.2666667
        k(    6) = (   0.3333333   0.6304464   0.0000000), wk =   0.2666667
        k(    7) = (  -0.3333333   0.3152232   0.0000000), wk =   0.2666667
        k(    8) = (  -0.3333333   0.6304464   0.0000000), wk =   0.2666667

     Initial potential from superposition of free atoms

     starting charge  367.89994, renormalised to  368.00000

     negative rho (up, down):  5.409E-07 0.000E+00
     Starting wfcs are  348 randomized atomic wfcs

     Self-consistent Calculation

     iteration #  1     ecut=    40.00 Ry     beta= 0.70
     Davidson diagonalization with overlap
     ethr =  1.00E-02,  avg # of iterations =  3.0

     total energy              =   -1215.49369213 Ry
     Harris-Foulkes estimate   =   -1216.47958495 Ry
     estimated scf accuracy    <       9.98403403 Ry

[...]

     negative rho (up, down):  3.097E-05 0.000E+00

[...]

     negative rho (up, down):  4.754E-06 0.000E+00

[...]

     total energy              =   -1215.63589328 Ry
     Harris-Foulkes estimate   =   -1215.63589328 Ry
     estimated scf accuracy    <          2.6E-11 Ry

     iteration # 27     ecut=    40.00 Ry     beta= 0.70
     Davidson diagonalization with overlap
     ethr =  1.00E-13,  avg # of iterations =  1.0

     End of self-consistent calculation

          k = 0.0000 0.0000 0.0000 ( 49049 PWs)   bands (ev):

   -18.6088 -18.2468 -18.1863 -17.9887 -17.8165 -17.7329 -17.6177 -17.5348
   -17.4011 -17.3646 -17.3193 -17.1839 -17.1296 -17.0105 -16.9435 -16.9019
   -16.7816 -16.7804 -16.7708 -16.7092 -16.6937 -16.6156 -16.5544 -16.5325
   -16.4778 -16.4485 -16.4195 -16.3091 -16.2861 -16.1907  -7.9738  -7.3438
    -7.1293  -7.1123  -6.8792  -6.7138  -6.5704  -6.5432  -6.1079  -5.7554
    -5.5343  -5.1345  -4.9602  -4.7119  -4.5803  -4.3810  -4.3195  -4.3122
    -4.2161  -4.2039  -4.0824  -4.0557  -4.0497  -3.9325  -3.8766  -3.8143
    -3.7709  -3.6926  -3.6046  -3.4445  -3.4187  -3.3232  -3.3136  -3.1766
    -3.0571  -3.0079  -2.8862  -2.8233  -2.6507  -2.6166  -2.6155  -2.3689
    -2.3681  -1.9859  -1.9846  -1.8199  -1.7738  -1.6858  -1.5798  -1.5712
    -1.4540  -1.4497  -1.4178  -1.4118  -1.4013  -1.3296  -1.2931  -1.2425
    -1.1549  -1.0263  -0.9875  -0.9510  -0.8324  -0.8052  -0.7920  -0.7773
    -0.7223  -0.7005  -0.6354  -0.6236  -0.5569  -0.5277  -0.4404  -0.3284
    -0.3197  -0.3132  -0.2205  -0.1882  -0.1426  -0.0718  -0.0637  -0.0444
     0.0433   0.0646   0.0712   0.1385   0.1791   0.1813   0.2751   0.2945
     0.3087   0.3565   0.3745   0.4050   0.5595   0.5730   0.6053   0.6499
     0.6516   0.7274   0.7755   0.8659   0.8713   0.8941   0.9199   0.9274
     0.9836   1.0225   1.0932   1.0950   1.1330   1.1568   1.2545   1.2811
     1.2838   1.3844   1.5045   1.5515   1.5753   1.5825   1.5858   1.5893
     1.6076   1.7058   1.7604   1.7782   1.7852   1.8073   1.8669   1.9344
     2.0379   2.1920   2.3393   2.6604   2.6655   2.7026   2.7709   2.7881
     2.7887   2.8856   2.8906   2.8921   3.0059   3.0250   3.0250   3.1511
     3.3721   3.3926   3.3930   3.5125   3.5194   3.5322   3.5519   3.5708
     3.5763   3.7141   3.7336   3.8005   3.8981   3.9162   3.9173   4.4169
     4.4216   4.4506   4.5641   4.5691   4.5781   4.6716   4.6874   4.9241
     5.0059   5.3652   5.3677   5.3774   5.4550   5.4675   5.5097   5.5196
     5.5370   5.6764   5.6994   5.7777   6.2685   6.2831   6.2929   6.3196
     6.4765   6.4944   6.4970   6.5354   6.6233

[...]

          k = 0.3333 0.6304 0.0000 ( 48860 PWs)   bands (ev):

[...]

          k =-0.3333 0.3152 0.0000 ( 48890 PWs)   bands (ev):

[...]

          k =-0.3333 0.6304 0.0000 ( 48860 PWs)   bands (ev):

   -18.3303 -18.2204 -18.0766 -17.9942 -17.8996 -17.7919 -17.6928 -17.6610
   -17.6056 -17.4562 -17.2045 -17.1643 -17.0194 -16.9746 -16.9190 -16.8901
   -16.8113 -16.7902 -16.7037 -16.6775 -16.6708 -16.6457 -16.6033 -16.5209
   -16.4698 -16.4332 -16.4123 -16.3389 -16.2032 -16.1908  -8.0860  -7.5514
    -7.5077  -7.1676  -6.9688  -6.2821  -6.2070  -5.8671  -5.7493  -5.6819
    -5.4422  -5.2461  -5.1124  -5.0175  -4.7647  -4.4608  -4.3664  -4.2178
    -4.1192  -4.0760  -3.8729  -3.8319  -3.7736  -3.6559  -3.6267  -3.5896
    -3.5408  -3.4985  -3.4049  -3.3404  -3.3054  -3.2501  -3.2120  -3.0966
    -3.0794  -2.9430  -2.9321  -2.8057  -2.6826  -2.6282  -2.3830  -2.3798
    -2.2977  -1.9947  -1.9787  -1.8994  -1.7615  -1.7534  -1.7346  -1.7085
    -1.6929  -1.5423  -1.4840  -1.4522  -1.4427  -1.3879  -1.3482  -1.2489
    -1.1404  -1.1353  -1.0655  -1.0005  -0.9942  -0.9567  -0.8988  -0.8808
    -0.8366  -0.8047  -0.7567  -0.7359  -0.6678  -0.6233  -0.5218  -0.4513
    -0.4041  -0.3907  -0.3487  -0.3464  -0.2536  -0.2069  -0.1753  -0.1247
    -0.1009  -0.0712  -0.0126   0.0017   0.0213   0.0680   0.0861   0.1129
     0.1918   0.2265   0.2719   0.2949   0.3207   0.3900   0.4400   0.4790
     0.5425   0.5491   0.5769   0.5876   0.6272   0.6540   0.7213   0.7318
     0.7390   0.7918   0.7967   0.8218   0.8649   0.9188   0.9707   1.0219
     1.0580   1.0626   1.1272   1.1655   1.1951   1.2267   1.2889   1.3051
     1.3165   1.5004   1.5472   1.5547   1.5949   1.6266   1.6752   1.7637
     1.8450   1.8722   1.8999   1.9162   2.0326   2.1976   2.3152   2.4468
     2.4550   2.5179   2.5639   2.7799   2.8590   2.9317   3.0758   3.1562
     3.4071   3.4521   3.4555   3.4598   3.6923   3.8363   4.0012   4.1360
     4.2744   4.3956   4.5039   4.6136   4.6387   4.6590   5.0548   5.0956
     5.1868   5.2075   5.2425   5.2754   5.4674   5.5678   5.5842   5.6154
     5.6394   6.0669   6.0779   6.1070   6.2258   6.2942   6.3991   6.5103
     6.6000   6.7089   6.8087   6.8188   6.9033   6.9338   7.1112   7.2398
     7.2944   7.3448   7.4779   7.5572   7.5688

     the Fermi energy is     4.0565 ev

!    total energy              =   -1215.63589328 Ry
     Harris-Foulkes estimate   =   -1215.63589328 Ry
     estimated scf accuracy    <          5.9E-12 Ry

     The total energy is the sum of the following terms:

     one-electron contribution =  -10162.33603918 Ry
     hartree contribution      =    5235.93268083 Ry
     xc contribution           =    -309.39340726 Ry
     ewald contribution        =    4020.16148243 Ry
     smearing contrib. (-TS)   =      -0.00061009 Ry

     convergence has been achieved in  27 iterations

     Forces acting on atoms (cartesian axes, Ry/au):

     atom    1 type  1   force =    -0.02241746    0.05514189    1.29334323
     atom    2 type  1   force =     0.02493127   -0.05617253    1.29194307
     atom    3 type  1   force =    -0.01558773   -0.13863324    1.39140339
     atom    4 type  1   force =    -0.00488285    0.00748871    0.02026212
     atom    5 type  1   force =     0.00485865   -0.00759256    0.02125521
     atom    6 type  1   force =     0.00060744    0.00043520    0.00834848
     atom    7 type  1   force =    -0.00306054   -0.00008470    0.01590210
     atom    8 type  1   force =     0.00301284    0.00039838    0.01571691
     atom    9 type  1   force =    -0.00016680    0.00004214    0.00502017
     atom   10 type  1   force =    -0.00328037    0.00237217    0.01489746
     atom   11 type  1   force =     0.00323316   -0.00221045    0.01488040
     atom   12 type  1   force =     0.00003745    0.00012464    0.00785484
     atom   13 type  1   force =    -0.00563434    0.00079933    0.00143217
     atom   14 type  1   force =     0.00594364   -0.00038633    0.00163078
     atom   15 type  1   force =    -0.00023376    0.00021991    0.00658598
     atom   16 type  2   force =    -0.02492272   -0.01698098   -0.04532462
     atom   17 type  2   force =     0.04613620   -0.01637138   -0.01045692
     atom   18 type  2   force =     0.01787750   -0.03513345    0.07928454
     atom   19 type  2   force =     0.02381225    0.01709965   -0.04436271
     atom   20 type  2   force =    -0.04687867    0.01566762   -0.00985539
     atom   21 type  2   force =    -0.01956054    0.03928403    0.07288167
     atom   22 type  2   force =    -0.03030871   -0.01296746   -0.02433858
     atom   23 type  2   force =     0.02442561   -0.01990103   -0.02505445
     atom   24 type  2   force =     0.00440318   -0.01682046    0.02939375
     atom   25 type  2   force =     0.02941645    0.01216205   -0.02476327
     atom   26 type  2   force =    -0.02374487    0.01979402   -0.02522333
     atom   27 type  2   force =    -0.00418946    0.01658735    0.02945608
     atom   28 type  2   force =    -0.03075863   -0.01293858   -0.02211969
     atom   29 type  2   force =     0.02456787   -0.01898850   -0.02585808
     atom   30 type  2   force =     0.00645867   -0.01762972    0.02791606
     atom   31 type  2   force =     0.02990545    0.01217305   -0.02216984
     atom   32 type  2   force =    -0.02419718    0.01868114   -0.02580373
     atom   33 type  2   force =    -0.00576681    0.01728234    0.02787342
     atom   34 type  2   force =    -0.02690459   -0.01469615   -0.01451000
     atom   35 type  2   force =     0.02464670   -0.01918877   -0.02622873
     atom   36 type  2   force =     0.00627564   -0.01733177    0.02682425
     atom   37 type  2   force =     0.02604370    0.01386610   -0.01463345
     atom   38 type  2   force =    -0.02413391    0.01889307   -0.02621104
     atom   39 type  2   force =    -0.00568724    0.01701030    0.02677754
     atom   40 type  2   force =    -0.03795696   -0.07350567   -0.11368978
     atom   41 type  2   force =     0.05081541    0.01776569   -0.12421927
     atom   42 type  2   force =     0.01307493   -0.02169594    0.02522511
     atom   43 type  2   force =     0.03654330    0.07312185   -0.11171227
     atom   44 type  2   force =    -0.05039643   -0.01812992   -0.12205499
     atom   45 type  2   force =    -0.01235270    0.02117902    0.02544928
     atom   46 type  3   force =    -0.04864608    0.10798032   -1.35544553
     atom   47 type  3   force =     0.04836547   -0.10777829   -1.35507313
     atom   48 type  3   force =    -0.64733718   -1.02491067   -0.68099944
     atom   49 type  3   force =     0.66429230    1.15859109   -0.76770667
     atom   50 type  3   force =     0.00208752    0.01557870    0.12894134
     atom   51 type  3   force =     0.00717651    0.00413336    0.13740020
     atom   52 type  3   force =    -0.00363181   -0.01225075    0.12829060
     atom   53 type  3   force =    -0.00782512   -0.00365339    0.13668091
     atom   54 type  4   force =    -0.00069916    0.00210854    0.03150306
     atom   55 type  4   force =     0.00262000   -0.00578332    0.03216530
     atom   56 type  4   force =    -0.00037923   -0.00004907    0.00325893
     atom   57 type  4   force =    -0.00051461    0.00038888    0.00240983
     atom   58 type  4   force =    -0.00015763    0.00008543   -0.00066079
     atom   59 type  4   force =    -0.00029438    0.00000688   -0.00108385
     atom   60 type  4   force =     0.00000879    0.00012911   -0.00098802
[...]
     atom   79 type  4   force =     0.00008718    0.00014967   -0.00075463
     atom   80 type  4   force =     0.00009810   -0.00006852   -0.00077027
     atom   81 type  4   force =     0.00004343    0.00008621   -0.00101880
     atom   82 type  4   force =     0.00002505    0.00022628   -0.00181415
     atom   83 type  4   force =    -0.00014512   -0.00012727   -0.00191126
     atom   84 type  4   force =     0.00004501    0.00027280    0.00231435
     atom   85 type  4   force =    -0.00030859    0.00015110    0.00235741
     atom   86 type  4   force =     0.00025608    0.00008010    0.00145433
     atom   87 type  4   force =    -0.00002261    0.00010067    0.00134978
     atom   88 type  4   force =     0.00045713   -0.00012888    0.00174740
     atom   89 type  4   force =     0.00029011    0.00000418    0.00104392
     atom   90 type  4   force =     0.00004252    0.00049569   -0.00212261
     atom   91 type  4   force =     0.00015435    0.00031379   -0.00285948
     atom   92 type  4   force =     0.00361315    0.00481476   -0.03958218
     atom   93 type  4   force =     0.00061234    0.00060333   -0.02740030

     Total force =     3.677348     Total SCF correction =     0.000007

     Computing stress (Cartesian axis) and pressure

          total   stress  (Ry/bohr**3)                   (kbar)     P=     -487.65
  -0.00350368   0.00013818  -0.00000031         -515.41       20.33       -0.05
   0.00013818  -0.00348088  -0.00001155           20.33     -512.06       -1.70
  -0.00000031  -0.00001155  -0.00296038           -0.05       -1.70     -435.49

     Writing output data file ./pwscf.save/

     General routines

     Parallel routines

   This run was terminated on:  19:41: 7  20Aug2020

   JOB DONE.