     Program PWSCF v.6.5 starts on 21Aug2020 at  7:11: 9

     Reading input from espresso.pwi
Warning: card &IONS ignored
Warning: card / ignored
Warning: card &CELL ignored
Warning: card / ignored

     Current dimensions of program PWSCF are:
     Max number of different atomic species (ntypx) = 10
     Max number of k-points (npk) =  40000
     Max angular momentum in pseudopotentials (lmaxx) =  3

     IMPORTANT: XC functional enforced from input :
     Exchange-correlation= PBE
                           (   1   4   3   4   0   0   0)
     Any further DFT definition will be discarded
     Please, verify this is what you really want

     Subspace diagonalization in iterative solution of the eigenvalue problem:
     a serial algorithm will be used

     bravais-lattice index     =            0
     lattice parameter (alat)  =      16.3174  a.u.
     unit-cell volume          =   21916.3305 (a.u.)^3
     number of atoms/cell      =          178
     number of atomic types    =            4
     number of electrons       =       728.00
     number of Kohn-Sham states=          437
     kinetic-energy cutoff     =      40.0000  Ry
     charge density cutoff     =     160.0000  Ry
     convergence threshold     =      2.0E-11
     mixing beta               =       0.7000
     number of iterations used =           10  local-TF  mixing
     Exchange-correlation= PBE
                           (   1   4   3   4   0   0   0)

     celldm(1)=  16.317403  celldm(2)=   0.000000  celldm(3)=   0.000000
     celldm(4)=   0.000000  celldm(5)=   0.000000  celldm(6)=   0.000000

     crystal axes: (cart. coord. in units of alat)
               a(1) = (   1.000000   0.000000   0.000000 )
               a(2) = (   0.000000   0.634471   0.000000 )
               a(3) = (   0.000000   0.000000   7.950654 )

     reciprocal axes: (cart. coord. in units 2 pi/alat)
               b(1) = (  1.000000  0.000000  0.000000 )
               b(2) = (  0.000000  1.576116  0.000000 )
               b(3) = (  0.000000  0.000000  0.125776 )

     PseudoPot. # 1 for Si read from file:
     /home/mfh/Dokumente/Forschung_Wissenschaft/DFT_Plane_Waves/2019.12.01_SCF_LDOS_Preconditioning/calculations/paper/qe_pseudos/Si.pbe-hgh.UPF
     MD5 check sum: 644c0713ebe098a80395b411a455088e
     Pseudo is Norm-conserving, Zval =  4.0
     Generated in analytical, separable form
     Using radial grid of 1141 points,  3 beta functions with:
                l(1) =   0
                l(2) =   0
                l(3) =   1

     PseudoPot. # 2 for O  read from file:
     /home/mfh/Dokumente/Forschung_Wissenschaft/DFT_Plane_Waves/2019.12.01_SCF_LDOS_Preconditioning/calculations/paper/qe_pseudos/O.pbe-hgh.UPF
     MD5 check sum: 3e173e9dc2062953e4e95063157df22d
     Pseudo is Norm-conserving, Zval =  6.0
     Generated in analytical, separable form
     Using radial grid of 1095 points,  1 beta functions with:
                l(1) =   0

     PseudoPot. # 3 for H  read from file:
     /home/mfh/Dokumente/Forschung_Wissenschaft/DFT_Plane_Waves/2019.12.01_SCF_LDOS_Preconditioning/calculations/paper/qe_pseudos/H.pbe-hgh.UPF
     MD5 check sum: 50ae4f52d34cf16cdfed4bce9c5a191e
     Pseudo is Norm-conserving, Zval =  1.0
     Generated in analytical, separable form
     Using radial grid of  929 points,  0 beta functions with:

     PseudoPot. # 4 for Al read from file:
     /home/mfh/Dokumente/Forschung_Wissenschaft/DFT_Plane_Waves/2019.12.01_SCF_LDOS_Preconditioning/calculations/paper/qe_pseudos/Al.pbe-hgh.UPF
     MD5 check sum: 802bf3c274188c2a448b709cf94527cc
     Pseudo is Norm-conserving, Zval =  3.0
     Generated in analytical, separable form
     Using radial grid of 1135 points,  3 beta functions with:
                l(1) =   0
                l(2) =   0
                l(3) =   1

     atomic species   valence    mass     pseudopotential
        Si             4.00    28.08500     Si( 1.00)
        O              6.00    15.99900     O ( 1.00)
        H              1.00     1.00800     H ( 1.00)
        Al             3.00    26.98154     Al( 1.00)

     No symmetry found

   Cartesian axes

     site n.     atom                  positions (alat units)
         1           Si  tau(   1) = (   0.7971483   0.1083228   0.2279332  )
         2           Si  tau(   2) = (   0.2682863   0.5313038   0.2279332  )
         3           Si  tau(   3) = (   0.5327173   0.3198130   0.1085909  )
         4           Si  tau(   4) = (   0.2971483   0.1083228   0.5166084  )
         5           Si  tau(   5) = (   0.7682863   0.5313038   0.5166084  )
         6           Si  tau(   6) = (   0.0327173   0.3198130   0.3972660  )
         7           Si  tau(   7) = (   0.7971483   0.1083228   0.8052835  )
         8           Si  tau(   8) = (   0.2682863   0.5313038   0.8052835  )
         9           Si  tau(   9) = (   0.5327173   0.3198130   0.6859412  )
        10           Si  tau(  10) = (   0.2971483   0.1083228   1.0939586  )
        11           Si  tau(  11) = (   0.7682863   0.5313038   1.0939586  )
        12           Si  tau(  12) = (   0.0327173   0.3198130   0.9746163  )
        13           Si  tau(  13) = (   0.7971483   0.1083228   1.3826338  )
        14           Si  tau(  14) = (   0.2682863   0.5313038   1.3826338  )
        15           Si  tau(  15) = (   0.5327173   0.3198130   1.2632914  )
        16           Si  tau(  16) = (   0.2971483   0.1083228   1.6713089  )
        17           Si  tau(  17) = (   0.7682863   0.5313038   1.6713089  )
        18           Si  tau(  18) = (   0.0327173   0.3198130   1.5519666  )
        19           Si  tau(  19) = (   0.7971483   0.1083228   1.9599841  )
        20           Si  tau(  20) = (   0.2682863   0.5313038   1.9599841  )
        21           Si  tau(  21) = (   0.5327173   0.3198130   1.8406417  )
        22           Si  tau(  22) = (   0.2971483   0.1083228   2.2486592  )
        23           Si  tau(  23) = (   0.7682863   0.5313038   2.2486592  )
        24           Si  tau(  24) = (   0.0327173   0.3198130   2.1293168  )
        25           Si  tau(  25) = (   0.7971483   0.1083228   2.5373343  )
        26           Si  tau(  26) = (   0.2682863   0.5313038   2.5373343  )
        27           Si  tau(  27) = (   0.5327173   0.3198130   2.4179920  )
        28           Si  tau(  28) = (   0.2971483   0.1083228   2.8260095  )
        29           Si  tau(  29) = (   0.7682863   0.5313038   2.8260095  )
        30           Si  tau(  30) = (   0.0327173   0.3198130   2.7066671  )
        31           O   tau(  31) = (   0.7397353   0.6077785   0.3468408  )
        32           O   tau(  32) = (   0.9584468   0.1847975   0.2880911  )
        33           O   tau(  33) = (   0.3999698   0.3962883   0.2182006  )
        34           O   tau(  34) = (   0.3256993   0.0318475   0.3468408  )
        35           O   tau(  35) = (   0.1069878   0.4548284   0.2880911  )
        36           O   tau(  36) = (   0.6654648   0.2433376   0.2182006  )
        37           O   tau(  37) = (   0.2397353   0.6077785   0.6355160  )
        38           O   tau(  38) = (   0.4584468   0.1847975   0.5767663  )
        39           O   tau(  39) = (   0.8999698   0.3962883   0.5068757  )
        40           O   tau(  40) = (   0.8256993   0.0318475   0.6355160  )
        41           O   tau(  41) = (   0.6069878   0.4548284   0.5767663  )
        42           O   tau(  42) = (   0.1654648   0.2433376   0.5068757  )
        43           O   tau(  43) = (   0.7397353   0.6077785   0.9241911  )
        44           O   tau(  44) = (   0.9584468   0.1847975   0.8654414  )
        45           O   tau(  45) = (   0.3999698   0.3962883   0.7955508  )
        46           O   tau(  46) = (   0.3256993   0.0318475   0.9241911  )
        47           O   tau(  47) = (   0.1069878   0.4548284   0.8654414  )
        48           O   tau(  48) = (   0.6654648   0.2433376   0.7955508  )
        49           O   tau(  49) = (   0.2397353   0.6077785   1.2128662  )
        50           O   tau(  50) = (   0.4584468   0.1847975   1.1541165  )
        51           O   tau(  51) = (   0.8999698   0.3962883   1.0842260  )
        52           O   tau(  52) = (   0.8256993   0.0318475   1.2128662  )
        53           O   tau(  53) = (   0.6069878   0.4548284   1.1541165  )
        54           O   tau(  54) = (   0.1654648   0.2433376   1.0842260  )
        55           O   tau(  55) = (   0.7397353   0.6077785   1.5015414  )
        56           O   tau(  56) = (   0.9584468   0.1847975   1.4427917  )
        57           O   tau(  57) = (   0.3999698   0.3962883   1.3729011  )
        58           O   tau(  58) = (   0.3256993   0.0318475   1.5015414  )
        59           O   tau(  59) = (   0.1069878   0.4548284   1.4427917  )
        60           O   tau(  60) = (   0.6654648   0.2433376   1.3729011  )
[...]
       164           Al  tau( 164) = (   0.8733068   0.4752774   6.0891595  )
       165           Al  tau( 165) = (   0.6233068   0.4752774   6.3236757  )
       166           Al  tau( 166) = (   0.8733068   0.1580419   6.3236757  )
       167           Al  tau( 167) = (   0.6233068   0.1580419   6.5581919  )
       168           Al  tau( 168) = (   0.8733068   0.4752774   6.5581919  )
       169           Al  tau( 169) = (   0.6233068   0.4752774   6.7927081  )
       170           Al  tau( 170) = (   0.8733068   0.1580419   6.7927081  )
       171           Al  tau( 171) = (   0.6233068   0.1580419   7.0272243  )
       172           Al  tau( 172) = (   0.8733068   0.4752774   7.0272243  )
       173           Al  tau( 173) = (   0.6233068   0.4752774   7.2617405  )
       174           Al  tau( 174) = (   0.8733068   0.1580419   7.2617405  )
       175           Al  tau( 175) = (   0.6233068   0.1580419   7.4962567  )
       176           Al  tau( 176) = (   0.8733068   0.4752774   7.4962567  )
       177           Al  tau( 177) = (   0.6233068   0.4752774   7.7307729  )
       178           Al  tau( 178) = (   0.8733068   0.1580419   7.7307729  )

     number of k points=     8  Gaussian smearing, width (Ry)=  0.0020
                       cart. coord. in units 2pi/alat
        k(    1) = (   0.0000000   0.0000000   0.0000000), wk =   0.1333333
        k(    2) = (   0.0000000   0.3152232   0.0000000), wk =   0.2666667
        k(    3) = (   0.0000000   0.6304464   0.0000000), wk =   0.2666667
        k(    4) = (   0.3333333   0.0000000   0.0000000), wk =   0.2666667
        k(    5) = (   0.3333333   0.3152232   0.0000000), wk =   0.2666667
        k(    6) = (   0.3333333   0.6304464   0.0000000), wk =   0.2666667
        k(    7) = (  -0.3333333   0.3152232   0.0000000), wk =   0.2666667
        k(    8) = (  -0.3333333   0.6304464   0.0000000), wk =   0.2666667

     Initial potential from superposition of free atoms

     starting charge  727.79995, renormalised to  728.00000

     negative rho (up, down):  2.066E-05 0.000E+00
     Starting wfcs are  688 randomized atomic wfcs

     Self-consistent Calculation

     iteration #  1     ecut=    40.00 Ry     beta= 0.70
     Davidson diagonalization with overlap
     ethr =  1.00E-02,  avg # of iterations =  3.0

     total energy              =   -2424.19621250 Ry
     Harris-Foulkes estimate   =   -2426.88914711 Ry
     estimated scf accuracy    <     172.13223392 Ry

[...]

     negative rho (up, down):  2.788E-05 0.000E+00

[...]

     negative rho (up, down):  6.901E-05 0.000E+00

[...]

     total energy              =   -2424.79442653 Ry
     Harris-Foulkes estimate   =   -2424.79442652 Ry
     estimated scf accuracy    <          4.5E-11 Ry

     iteration # 40     ecut=    40.00 Ry     beta= 0.70
     Davidson diagonalization with overlap
     ethr =  1.00E-13,  avg # of iterations =  1.0

     End of self-consistent calculation

          k = 0.0000 0.0000 0.0000 ( 93949 PWs)   bands (ev):

   -18.5532 -18.2931 -18.1244 -18.0933 -17.9307 -17.8512 -17.7889 -17.6529
   -17.6385 -17.5147 -17.4586 -17.4045 -17.3558 -17.3202 -17.2828 -17.2517
   -17.1795 -17.1643 -17.1417 -17.0388 -17.0334 -16.8969 -16.8666 -16.8430
   -16.8286 -16.8072 -16.7582 -16.7253 -16.7204 -16.6883 -16.6173 -16.6012
   -16.5967 -16.5899 -16.5543 -16.4697 -16.4688 -16.4628 -16.4349 -16.4179
   -16.3495 -16.3358 -16.3327 -16.3257 -16.2801 -16.2613 -16.1936 -16.1867
   -16.1404 -16.0527 -16.0453 -15.9979 -15.9390 -15.9284 -15.9064 -15.8968
   -15.8486 -15.7538 -15.7510 -15.6909  -7.7841  -7.2843  -7.1638  -7.0307
    -7.0273  -6.8916  -6.7529  -6.6411  -6.6113  -6.5404  -6.4688  -6.3423
    -6.3087  -6.0925  -6.0615  -5.8508  -5.8359  -5.5705  -5.4622  -5.2665
    -5.1407  -4.9599  -4.8240  -4.6532  -4.5237  -4.3245  -4.3044  -4.2893
    -4.2543  -4.1460  -4.1367  -4.1318  -4.0808  -4.0754  -4.0295  -3.9956
    -3.9532  -3.9319  -3.8978  -3.8267  -3.8046  -3.7877  -3.7772  -3.7429
    -3.7414  -3.6641  -3.6293  -3.5761  -3.5377  -3.5097  -3.4655  -3.4628
    -3.3900  -3.3483  -3.3007  -3.2603  -3.2319  -3.2147  -3.2125  -3.1496
    -3.0862  -3.0466  -2.9897  -2.9281  -2.8746  -2.8551  -2.8243  -2.8113
    -2.6731  -2.6407  -2.5902  -2.4987  -2.3560  -2.3559  -2.3395  -2.2879
    -2.2875  -2.2257  -2.1823  -2.1820  -2.0355  -2.0352  -1.8491  -1.8487
    -1.7960  -1.6784  -1.6370  -1.6221  -1.6214  -1.5820  -1.5516  -1.4433
    -1.4269  -1.3597  -1.3562  -1.3438  -1.3390  -1.3283  -1.3234  -1.2924
    -1.2747  -1.2047  -1.1734  -1.1441  -1.0775  -1.0480  -1.0464  -1.0334
    -1.0108  -0.9674  -0.9511  -0.9138  -0.8916  -0.8570  -0.8226  -0.8018
    -0.7784  -0.7319  -0.7067  -0.7053  -0.6819  -0.6425  -0.6394  -0.6149
    -0.6021  -0.5611  -0.5134  -0.5084  -0.4719  -0.4337  -0.4198  -0.3923
    -0.3744  -0.3547  -0.3328  -0.3183  -0.2700  -0.2511  -0.2334  -0.2178
    -0.2024  -0.1839  -0.1093  -0.0975  -0.0924  -0.0683  -0.0503  -0.0233
     0.0035   0.0133   0.0166   0.0682   0.1065   0.1076   0.1135   0.1194
     0.1253   0.1629   0.1896   0.2158   0.2322   0.2638   0.2687   0.2763
     0.3227   0.3504   0.3779   0.4043   0.4221   0.4294   0.4398   0.4590
     0.5269   0.5292   0.5415   0.5481   0.5706   0.5912   0.6023   0.6326
     0.6672   0.6711   0.6812   0.6998   0.7301   0.7644   0.7850   0.8170
     0.8232   0.8475   0.8764   0.9392   0.9460   0.9684   0.9717   1.0047
     1.0186   1.0538   1.0592   1.0720   1.1313   1.1450   1.1563   1.1744
     1.1894   1.1944   1.2222   1.2297   1.2444   1.2556   1.3125   1.3185
     1.3270   1.3457   1.3529   1.3799   1.4387   1.4671   1.4750   1.5104
     1.5289   1.5459   1.5548   1.5795   1.5974   1.6170   1.6234   1.6340
     1.6494   1.6809   1.7023   1.7900   1.8217   1.8568   1.8569   1.8682
     1.9155   1.9156   1.9177   1.9299   1.9620   1.9733   1.9848   1.9876
     2.0009   2.0025   2.1019   2.1029   2.1111   2.1300   2.1381   2.1641
     2.1693   2.2029   2.2785   2.2833   2.3644   2.3822   2.4109   2.4377
     2.6579   2.7715   2.8115   2.8606   2.8621   2.9518   2.9541   2.9759
     3.0362   3.0519   3.0521   3.1008   3.1175   3.1178   3.1205   3.1276
     3.1531   3.2008   3.2193   3.2193   3.2484   3.2642   3.2670   3.3406
     3.3609   3.3611   3.5185   3.5409   3.5411   3.5696   3.5968   3.5990
     3.6042   3.6064   3.6701   3.6862   3.7340   3.7588   3.7591   3.8273
     3.8818   3.9592   3.9880   3.9921   3.9965   3.9987   4.0189   4.0198
     4.0205   4.0277   4.0470   4.0951   4.1719   4.1834   4.2910   4.3195
     4.3207   4.4417   4.4463   4.5174   4.6236   4.6535   4.6547   4.7296
     4.7354   4.9757   4.9896   5.0028   5.0275   5.0341   5.0508   5.0805
     5.1111   5.2450   5.2519   5.3590   5.3809   5.4121   5.4185   5.4410
     5.4450   5.5863   5.5965   5.6205   5.6981   5.7032   5.7193   5.7772
     5.8644   5.8906   5.8948   5.9804   5.9949   6.1269   6.1624   6.2007
     6.2394   6.3509   6.3758   6.3792   6.4336   6.4391   6.5372   6.5916
     6.5989   6.6942   6.7051   6.8123   6.8278   6.8704   6.8940   6.9019
     6.9265   6.9860   6.9928   6.9980   7.0874

[...]

          k = 0.3333 0.6304 0.0000 ( 93540 PWs)   bands (ev):

[...]

          k =-0.3333 0.3152 0.0000 ( 93620 PWs)   bands (ev):

[...]

          k =-0.3333 0.6304 0.0000 ( 93540 PWs)   bands (ev):

   -18.2518 -18.1758 -18.0436 -17.9534 -17.9146 -17.9075 -17.7709 -17.7100
   -17.6317 -17.6307 -17.5271 -17.4898 -17.4473 -17.3530 -17.3082 -17.2834
   -17.1945 -17.1734 -17.1219 -17.1042 -17.0210 -16.9626 -16.9364 -16.8855
   -16.8307 -16.7809 -16.7486 -16.7267 -16.6943 -16.6547 -16.6321 -16.6068
   -16.5591 -16.5256 -16.5051 -16.4830 -16.4651 -16.4273 -16.4202 -16.3897
   -16.3631 -16.3542 -16.2980 -16.2695 -16.2520 -16.2305 -16.2151 -16.1436
   -16.1127 -16.0839 -16.0072 -15.9812 -15.9649 -15.9505 -15.9002 -15.8484
   -15.8150 -15.7799 -15.6912 -15.6862  -7.9548  -7.5711  -7.4190  -7.2943
    -7.1231  -7.0373  -6.8799  -6.7369  -6.5437  -6.3957  -6.1369  -5.9016
    -5.7369  -5.7268  -5.5780  -5.5490  -5.4557  -5.3152  -5.1923  -5.1793
    -5.1073  -5.0613  -4.9204  -4.8593  -4.7854  -4.6487  -4.5583  -4.5060
    -4.3591  -4.2066  -4.1207  -4.0640  -4.0211  -3.9718  -3.9324  -3.8763
    -3.8503  -3.7663  -3.7292  -3.6395  -3.5991  -3.5937  -3.5300  -3.4900
    -3.4812  -3.4325  -3.3749  -3.3503  -3.3275  -3.2965  -3.2597  -3.2390
    -3.2177  -3.1578  -3.1545  -3.1244  -3.1027  -3.0785  -3.0074  -2.9846
    -2.9219  -2.9018  -2.8576  -2.8240  -2.8062  -2.7095  -2.6788  -2.6729
    -2.6352  -2.6041  -2.5786  -2.5272  -2.4974  -2.3669  -2.3505  -2.3059
    -2.2986  -2.1930  -2.1632  -2.0456  -1.9961  -1.9375  -1.8582  -1.8180
    -1.7286  -1.7162  -1.7158  -1.6673  -1.6491  -1.6477  -1.6326  -1.6261
    -1.5448  -1.5255  -1.4860  -1.4075  -1.3993  -1.3634  -1.3590  -1.3570
    -1.3253  -1.2622  -1.2485  -1.2119  -1.1997  -1.1302  -1.0827  -1.0590
    -1.0562  -1.0238  -1.0045  -0.9934  -0.9726  -0.9649  -0.9469  -0.9025
    -0.8894  -0.8523  -0.8218  -0.8135  -0.8028  -0.7388  -0.7248  -0.7191
    -0.7126  -0.6807  -0.6403  -0.6176  -0.5960  -0.5863  -0.5446  -0.5231
    -0.4744  -0.4598  -0.4199  -0.4110  -0.3748  -0.3548  -0.3413  -0.3259
    -0.3114  -0.2955  -0.2793  -0.2353  -0.2126  -0.1819  -0.1544  -0.1048
    -0.0857  -0.0840  -0.0798  -0.0407  -0.0301  -0.0175   0.0239   0.0327
     0.0622   0.0717   0.0836   0.0837   0.1193   0.1396   0.1604   0.1685
     0.2046   0.2207   0.2317   0.2424   0.2640   0.2813   0.2875   0.3033
     0.3404   0.3733   0.3975   0.4015   0.4490   0.4800   0.5054   0.5237
     0.5402   0.5566   0.5658   0.5792   0.5984   0.6199   0.6373   0.6495
     0.6722   0.6856   0.6970   0.7079   0.7325   0.7525   0.7764   0.8049
     0.8186   0.8276   0.8438   0.8541   0.8662   0.8922   0.9172   0.9350
     0.9535   0.9678   0.9935   1.0142   1.0202   1.0510   1.0583   1.0635
     1.0936   1.1218   1.1261   1.1407   1.1523   1.1710   1.1913   1.1982
     1.2201   1.2299   1.2671   1.2826   1.2860   1.2939   1.3133   1.3483
     1.3658   1.3745   1.4020   1.4225   1.4330   1.4477   1.5187   1.5424
     1.5521   1.5816   1.6079   1.6782   1.6936   1.7168   1.7753   1.7843
     1.8076   1.8181   1.8450   1.8702   1.8793   1.8805   1.9096   1.9657
     1.9731   2.0165   2.0493   2.0722   2.0859   2.0934   2.1042   2.1128
     2.1401   2.1897   2.2055   2.2848   2.3248   2.3767   2.4479   2.5029
     2.5198   2.6528   2.6861   2.7224   2.7265   2.7737   2.7816   2.8302
     2.8508   2.9294   2.9950   3.0034   3.1655   3.1848   3.2509   3.2816
     3.3429   3.3549   3.4034   3.5026   3.5152   3.5261   3.5594   3.7792
     3.8196   3.8750   3.8775   3.8896   3.9440   4.1009   4.1217   4.1712
     4.3233   4.3296   4.3837   4.4407   4.5177   4.6381   4.6746   4.7616
     4.8103   4.8705   4.8792   4.9450   5.0247   5.1421   5.1751   5.2130
     5.3226   5.3848   5.4606   5.4798   5.4932   5.5015   5.5083   5.6051
     5.6104   5.6280   5.6610   5.7638   5.8305   5.9034   5.9197   5.9653
     5.9798   6.0340   6.1022   6.1300   6.3079   6.3373   6.3608   6.4136
     6.4299   6.4391   6.5802   6.6070   6.6224   6.6433   6.6575   6.7522
     6.8596   6.9140   6.9177   7.0147   7.0469   7.0522   7.0663   7.1009
     7.1796   7.1998   7.2210   7.2334   7.2381   7.3950   7.4577   7.5325
     7.5761   7.6158   7.6335   7.6617   7.6737   7.7282   7.7313   7.7880
     7.8120   7.8231   7.8283   7.8935   7.9057

     the Fermi energy is     4.3601 ev

!    total energy              =   -2424.79442652 Ry
     Harris-Foulkes estimate   =   -2424.79442652 Ry
     estimated scf accuracy    <          1.9E-11 Ry

     The total energy is the sum of the following terms:

     one-electron contribution =  -71739.73121555 Ry
     hartree contribution      =   36184.25659693 Ry
     xc contribution           =    -612.92938842 Ry
     ewald contribution        =   33743.61044044 Ry
     smearing contrib. (-TS)   =      -0.00085992 Ry

     convergence has been achieved in  40 iterations

     Forces acting on atoms (cartesian axes, Ry/au):

     atom    1 type  1   force =    -0.02389948    0.05656851    1.28994161
     atom    2 type  1   force =     0.02672692   -0.05840425    1.28797504
     atom    3 type  1   force =    -0.01623922   -0.14028945    1.38506691
     atom    4 type  1   force =    -0.00520997    0.00745565    0.01428612
     atom    5 type  1   force =     0.00537185   -0.00853349    0.01538753
     atom    6 type  1   force =     0.00074889    0.00001738    0.00363857
     atom    7 type  1   force =    -0.00369297   -0.00027246    0.01013329
     atom    8 type  1   force =     0.00382735   -0.00031369    0.00990055
     atom    9 type  1   force =    -0.00011731   -0.00041825   -0.00002540
     atom   10 type  1   force =    -0.00323660   -0.00100068    0.00965628
     atom   11 type  1   force =     0.00339808    0.00026553    0.00970960
     atom   12 type  1   force =     0.00009947   -0.00030656    0.00153064
     atom   13 type  1   force =    -0.00324252   -0.00098705    0.00979225
     atom   14 type  1   force =     0.00337372    0.00030864    0.00976692
     atom   15 type  1   force =     0.00004596   -0.00034128    0.00170853
     atom   16 type  1   force =    -0.00321485   -0.00101654    0.00989633
     atom   17 type  1   force =     0.00337922    0.00031338    0.00991224
     atom   18 type  1   force =     0.00005671   -0.00032695    0.00179031
     atom   19 type  1   force =    -0.00322872   -0.00103341    0.01002827
     atom   20 type  1   force =     0.00336741    0.00032897    0.01000987
     atom   21 type  1   force =     0.00006721   -0.00033852    0.00190242
     atom   22 type  1   force =    -0.00300228   -0.00076824    0.00994493
     atom   23 type  1   force =     0.00315528    0.00009491    0.00995700
     atom   24 type  1   force =     0.00003906   -0.00033606    0.00200376
     atom   25 type  1   force =    -0.00360299    0.00237116    0.00952722
     atom   26 type  1   force =     0.00373914   -0.00313355    0.00944113
     atom   27 type  1   force =     0.00010208   -0.00033224    0.00334987
     atom   28 type  1   force =    -0.00647618    0.00061279   -0.00345829
     atom   29 type  1   force =     0.00709209   -0.00115093   -0.00334715
     atom   30 type  1   force =    -0.00025881   -0.00016724    0.00228846
     atom   31 type  2   force =    -0.02335762   -0.01836609   -0.04199029
     atom   32 type  2   force =     0.04722902   -0.01552747   -0.00859492
     atom   33 type  2   force =     0.01443844   -0.03317511    0.08032139
     atom   34 type  2   force =     0.02437357    0.01981336   -0.04054924
     atom   35 type  2   force =    -0.04907625    0.01546120   -0.00768826
     atom   36 type  2   force =    -0.01820950    0.03995195    0.07422152
     atom   37 type  2   force =    -0.02835520   -0.01408663   -0.01906860
     atom   38 type  2   force =     0.02484999   -0.01772004   -0.01911478
     atom   39 type  2   force =     0.00253872   -0.01628513    0.03307997
     atom   40 type  2   force =     0.03035570    0.01482360   -0.01979123
     atom   41 type  2   force =    -0.02588259    0.01991783   -0.02128310
     atom   42 type  2   force =    -0.00378736    0.01694006    0.03297254
     atom   43 type  2   force =    -0.02884983   -0.01446942   -0.01953104
     atom   44 type  2   force =     0.02567969   -0.01643285   -0.02578537
     atom   45 type  2   force =     0.00240374   -0.01586227    0.03047548
     atom   46 type  2   force =     0.03084482    0.01515248   -0.01906208
     atom   47 type  2   force =    -0.02665077    0.01832630   -0.02402050
     atom   48 type  2   force =    -0.00566599    0.01974983    0.03083037
     atom   49 type  2   force =    -0.02959722   -0.01460085   -0.01764295
     atom   50 type  2   force =     0.02578086   -0.01743681   -0.02175967
     atom   51 type  2   force =     0.00469731   -0.01726136    0.02960628
     atom   52 type  2   force =     0.03088377    0.01515181   -0.01766667
     atom   53 type  2   force =    -0.02635880    0.01799847   -0.02218257
     atom   54 type  2   force =    -0.00547125    0.01785509    0.02949856
     atom   55 type  2   force =    -0.02824852   -0.01411804   -0.01821068
     atom   56 type  2   force =     0.02526151   -0.01512987   -0.02287782
     atom   57 type  2   force =     0.00395721   -0.01684259    0.03256433
     atom   58 type  2   force =     0.03105093    0.01514062   -0.01832080
     atom   59 type  2   force =    -0.02696396    0.01860191   -0.02280285
     atom   60 type  2   force =    -0.00568803    0.01852713    0.03223481
[...]
     atom  164 type  4   force =     0.00006242   -0.00037811    0.00107749
     atom  165 type  4   force =     0.00009780   -0.00036602   -0.00011917
     atom  166 type  4   force =    -0.00005822   -0.00034238   -0.00021931
     atom  167 type  4   force =     0.00013768   -0.00037482   -0.00081707
     atom  168 type  4   force =    -0.00004825   -0.00036077   -0.00107469
     atom  169 type  4   force =     0.00017423   -0.00024240    0.00103934
     atom  170 type  4   force =    -0.00003496   -0.00039141    0.00097881
     atom  171 type  4   force =     0.00008221   -0.00036212    0.00057579
     atom  172 type  4   force =     0.00002072   -0.00034081    0.00026966
     atom  173 type  4   force =     0.00014625   -0.00047831    0.00253358
     atom  174 type  4   force =     0.00028392   -0.00048619    0.00216639
     atom  175 type  4   force =    -0.00018371   -0.00000692   -0.00271351
     atom  176 type  4   force =     0.00030015   -0.00006906   -0.00317448
     atom  177 type  4   force =     0.00309741    0.00433822   -0.04021601
     atom  178 type  4   force =     0.00074194    0.00001261   -0.02836783

     Total force =     3.678061     Total SCF correction =     0.000013

     Computing stress (Cartesian axis) and pressure

          total   stress  (Ry/bohr**3)                   (kbar)     P=     -536.08
  -0.00373185   0.00007188  -0.00000000         -548.97       10.57       -0.00
   0.00007188  -0.00376334  -0.00000640           10.57     -553.61       -0.94
  -0.00000000  -0.00000640  -0.00343749           -0.00       -0.94     -505.67

     Writing output data file ./pwscf.save/

     General routines

     Parallel routines

   This run was terminated on:  14:49:21  21Aug2020

   JOB DONE.