     Program PWSCF v.6.5 starts on 20Aug2020 at 17:28:40

     Reading input from espresso.pwi
Warning: card &IONS ignored
Warning: card / ignored
Warning: card &CELL ignored
Warning: card / ignored

     Current dimensions of program PWSCF are:
     Max number of different atomic species (ntypx) = 10
     Max number of k-points (npk) =  40000
     Max angular momentum in pseudopotentials (lmaxx) =  3

     IMPORTANT: XC functional enforced from input :
     Exchange-correlation= PBE
                           (   1   4   3   4   0   0   0)
     Any further DFT definition will be discarded
     Please, verify this is what you really want

     Subspace diagonalization in iterative solution of the eigenvalue problem:
     a serial algorithm will be used

     Found symmetry operation: I + ( -0.5000 -0.5000  0.0000)
     This is a supercell, fractional translations are disabled
     Message from routine setup:
     using ibrav=0 with symmetry is DISCOURAGED, use correct ibrav instead

     bravais-lattice index     =            0
     lattice parameter (alat)  =       7.6534  a.u.
     unit-cell volume          =    4034.6344 (a.u.)^3
     number of atoms/cell      =           20
     number of atomic types    =            1
     number of electrons       =        60.00
     number of Kohn-Sham states=           36
     kinetic-energy cutoff     =      40.0000  Ry
     charge density cutoff     =     160.0000  Ry
     convergence threshold     =      2.0E-11
     mixing beta               =       0.7000
     number of iterations used =           10  local-TF  mixing
     Exchange-correlation= PBE
                           (   1   4   3   4   0   0   0)

     celldm(1)=   7.653391  celldm(2)=   0.000000  celldm(3)=   0.000000
     celldm(4)=   0.000000  celldm(5)=   0.000000  celldm(6)=   0.000000

     crystal axes: (cart. coord. in units of alat)
               a(1) = (   1.000000   0.000000   0.000000 )
               a(2) = (   0.000000   1.000000   0.000000 )
               a(3) = (   0.000000   0.000000   9.000000 )

     reciprocal axes: (cart. coord. in units 2 pi/alat)
               b(1) = (  1.000000  0.000000  0.000000 )
               b(2) = (  0.000000  1.000000  0.000000 )
               b(3) = (  0.000000  0.000000  0.111111 )

     PseudoPot. # 1 for Al read from file:
     /home/mfh/Dokumente/Forschung_Wissenschaft/DFT_Plane_Waves/2019.12.01_SCF_LDOS_Preconditioning/calculations/paper/qe_pseudos/Al.pbe-hgh.UPF
     MD5 check sum: 802bf3c274188c2a448b709cf94527cc
     Pseudo is Norm-conserving, Zval =  3.0
     Generated in analytical, separable form
     Using radial grid of 1135 points,  3 beta functions with:
                l(1) =   0
                l(2) =   0
                l(3) =   1

     atomic species   valence    mass     pseudopotential
        Al             3.00    26.98154     Al( 1.00)

      8 Sym. Ops. (no inversion) found

   Cartesian axes

     site n.     atom                  positions (alat units)
         1           Al  tau(   1) = (   0.0000000   0.0000000   0.0000000  )
         2           Al  tau(   2) = (   0.5000000   0.5000000   0.0000000  )
         3           Al  tau(   3) = (   0.0000000   0.5000000   0.5000000  )
         4           Al  tau(   4) = (   0.5000000   0.0000000   0.5000000  )
         5           Al  tau(   5) = (   0.0000000   0.0000000   1.0000000  )
         6           Al  tau(   6) = (   0.5000000   0.5000000   1.0000000  )
         7           Al  tau(   7) = (   0.0000000   0.5000000   1.5000000  )
         8           Al  tau(   8) = (   0.5000000   0.0000000   1.5000000  )
         9           Al  tau(   9) = (   0.0000000   0.0000000   2.0000000  )
        10           Al  tau(  10) = (   0.5000000   0.5000000   2.0000000  )
        11           Al  tau(  11) = (   0.0000000   0.5000000   2.5000000  )
        12           Al  tau(  12) = (   0.5000000   0.0000000   2.5000000  )
        13           Al  tau(  13) = (   0.0000000   0.0000000   3.0000000  )
        14           Al  tau(  14) = (   0.5000000   0.5000000   3.0000000  )
        15           Al  tau(  15) = (   0.0000000   0.5000000   3.5000000  )
        16           Al  tau(  16) = (   0.5000000   0.0000000   3.5000000  )
        17           Al  tau(  17) = (   0.0000000   0.0000000   4.0000000  )
        18           Al  tau(  18) = (   0.5000000   0.5000000   4.0000000  )
        19           Al  tau(  19) = (   0.0000000   0.5000000   4.5000000  )
        20           Al  tau(  20) = (   0.5000000   0.0000000   4.5000000  )

     number of k points=    10  Gaussian smearing, width (Ry)=  0.0020
                       cart. coord. in units 2pi/alat
        k(    1) = (   0.0000000   0.0000000   0.0000000), wk =   0.0555556
        k(    2) = (   0.0000000   0.1666667   0.0000000), wk =   0.2222222
        k(    3) = (   0.0000000   0.3333333   0.0000000), wk =   0.2222222
        k(    4) = (   0.0000000  -0.5000000   0.0000000), wk =   0.1111111
        k(    5) = (   0.1666667   0.1666667   0.0000000), wk =   0.2222222
        k(    6) = (   0.1666667   0.3333333   0.0000000), wk =   0.4444444
        k(    7) = (   0.1666667  -0.5000000   0.0000000), wk =   0.2222222
        k(    8) = (   0.3333333   0.3333333   0.0000000), wk =   0.2222222
        k(    9) = (   0.3333333  -0.5000000   0.0000000), wk =   0.2222222
        k(   10) = (  -0.5000000  -0.5000000   0.0000000), wk =   0.0555556

     Initial potential from superposition of free atoms

     starting charge   59.95422, renormalised to   60.00000

     negative rho (up, down):  4.691E-05 0.000E+00
     Starting wfcs are   80 randomized atomic wfcs

     Self-consistent Calculation

     iteration #  1     ecut=    40.00 Ry     beta= 0.70
     Davidson diagonalization with overlap
     ethr =  1.00E-02,  avg # of iterations =  2.9

     total energy              =     -82.82316971 Ry
     Harris-Foulkes estimate   =     -82.91980196 Ry
     estimated scf accuracy    <       1.80733305 Ry

[...]

     negative rho (up, down):  8.839E-05 0.000E+00

[...]

     negative rho (up, down):  5.393E-08 0.000E+00

[...]

     total energy              =     -82.81538586 Ry
     Harris-Foulkes estimate   =     -82.81538586 Ry
     estimated scf accuracy    <          2.5E-10 Ry

     iteration # 23     ecut=    40.00 Ry     beta= 0.70
     Davidson diagonalization with overlap
     ethr =  4.17E-13,  avg # of iterations =  2.4

     End of self-consistent calculation

          k = 0.0000 0.0000 0.0000 ( 17251 PWs)   bands (ev):

    -8.5416  -8.2716  -7.8479  -7.2907  -6.5436  -5.6635  -4.6295  -3.4816
    -2.1910  -0.7049  -0.3583  -0.3583  -0.1083  -0.1083   0.1022   0.2819
     0.2819   0.7956   0.7956   0.9446   0.9446   1.2051   1.2051   1.4899
     1.4899   1.6104   1.6104   2.1275   2.1275   2.1756   2.3131   2.3131
     2.9261   2.9261   3.2855   3.2855

[...]

          k = 0.3333-0.5000 0.0000 ( 17212 PWs)   bands (ev):

[...]

          k =-0.5000-0.5000 0.0000 ( 17228 PWs)   bands (ev):

    -4.0996  -4.0996  -4.0996  -4.0996  -3.8367  -3.8367  -3.8367  -3.8367
    -3.4249  -3.4249  -3.4249  -3.4249  -2.8841  -2.8841  -2.8841  -2.8841
    -2.1474  -2.1474  -2.1474  -2.1474  -1.2922  -1.2922  -1.2922  -1.2922
    -0.2874  -0.2874  -0.2874  -0.2874   0.8321   0.8321   0.8321   0.8321
     2.0915   2.0915   2.0915   2.0915

     the Fermi energy is     2.4495 ev

!    total energy              =     -82.81538586 Ry
     Harris-Foulkes estimate   =     -82.81538586 Ry
     estimated scf accuracy    <          2.8E-12 Ry

     The total energy is the sum of the following terms:

     one-electron contribution =   -1693.79497050 Ry
     hartree contribution      =     863.57308057 Ry
     xc contribution           =     -31.67647544 Ry
     ewald contribution        =     779.08336231 Ry
     smearing contrib. (-TS)   =      -0.00038279 Ry

     convergence has been achieved in  23 iterations

     Forces acting on atoms (cartesian axes, Ry/au):

     atom    1 type  1   force =     0.00000000    0.00000000   -0.00202686
     atom    2 type  1   force =     0.00000000    0.00000000   -0.00202686
     atom    3 type  1   force =     0.00000000    0.00000000    0.00451477
     atom    4 type  1   force =     0.00000000    0.00000000    0.00451477
     atom    5 type  1   force =     0.00000000    0.00000000   -0.00326813
     atom    6 type  1   force =     0.00000000    0.00000000   -0.00326812
     atom    7 type  1   force =     0.00000000    0.00000000   -0.00056724
     atom    8 type  1   force =     0.00000000    0.00000000   -0.00056724
     atom    9 type  1   force =     0.00000000    0.00000000    0.00724328
     atom   10 type  1   force =     0.00000000    0.00000000    0.00724328
     atom   11 type  1   force =     0.00000000    0.00000000   -0.00724328
     atom   12 type  1   force =     0.00000000    0.00000000   -0.00724328
     atom   13 type  1   force =     0.00000000    0.00000000    0.00056724
     atom   14 type  1   force =     0.00000000    0.00000000    0.00056724
     atom   15 type  1   force =     0.00000000    0.00000000    0.00326813
     atom   16 type  1   force =     0.00000000    0.00000000    0.00326813
     atom   17 type  1   force =     0.00000000    0.00000000   -0.00451477
     atom   18 type  1   force =     0.00000000    0.00000000   -0.00451477
     atom   19 type  1   force =     0.00000000    0.00000000    0.00202686
     atom   20 type  1   force =     0.00000000    0.00000000    0.00202686

     Total force =     0.018757     Total SCF correction =     0.000002

     Computing stress (Cartesian axis) and pressure

          total   stress  (Ry/bohr**3)                   (kbar)     P=       -8.16
  -0.00008018   0.00000000   0.00000000          -11.79        0.00        0.00
   0.00000000  -0.00008018   0.00000000            0.00      -11.79        0.00
   0.00000000   0.00000000  -0.00000610            0.00        0.00       -0.90

     Writing output data file ./pwscf.save/

     General routines

     Parallel routines

   This run was terminated on:  17:31:55  20Aug2020

   JOB DONE.