     Program PWSCF v.6.5 starts on 21Aug2020 at 15:38:50

     Reading input from espresso.pwi
Warning: card &IONS ignored
Warning: card / ignored
Warning: card &CELL ignored
Warning: card / ignored

     Current dimensions of program PWSCF are:
     Max number of different atomic species (ntypx) = 10
     Max number of k-points (npk) =  40000
     Max angular momentum in pseudopotentials (lmaxx) =  3

     IMPORTANT: XC functional enforced from input :
     Exchange-correlation= PBE
                           (   1   4   3   4   0   0   0)
     Any further DFT definition will be discarded
     Please, verify this is what you really want

     Subspace diagonalization in iterative solution of the eigenvalue problem:
     a serial algorithm will be used

     Found symmetry operation: I + ( -0.5000 -0.5000  0.0000)
     This is a supercell, fractional translations are disabled
     Message from routine setup:
     using ibrav=0 with symmetry is DISCOURAGED, use correct ibrav instead

     bravais-lattice index     =            0
     lattice parameter (alat)  =       7.6534  a.u.
     unit-cell volume          =    8517.5615 (a.u.)^3
     number of atoms/cell      =           40
     number of atomic types    =            1
     number of electrons       =       120.00
     number of Kohn-Sham states=           72
     kinetic-energy cutoff     =      40.0000  Ry
     charge density cutoff     =     160.0000  Ry
     convergence threshold     =      2.0E-11
     mixing beta               =       0.7000
     number of iterations used =           10  local-TF  mixing
     Exchange-correlation= PBE
                           (   1   4   3   4   0   0   0)

     celldm(1)=   7.653391  celldm(2)=   0.000000  celldm(3)=   0.000000
     celldm(4)=   0.000000  celldm(5)=   0.000000  celldm(6)=   0.000000

     crystal axes: (cart. coord. in units of alat)
               a(1) = (   1.000000   0.000000   0.000000 )
               a(2) = (   0.000000   1.000000   0.000000 )
               a(3) = (   0.000000   0.000000  19.000000 )

     reciprocal axes: (cart. coord. in units 2 pi/alat)
               b(1) = (  1.000000  0.000000  0.000000 )
               b(2) = (  0.000000  1.000000  0.000000 )
               b(3) = (  0.000000  0.000000  0.052632 )

     PseudoPot. # 1 for Al read from file:
     /home/mfh/Dokumente/Forschung_Wissenschaft/DFT_Plane_Waves/2019.12.01_SCF_LDOS_Preconditioning/calculations/paper/qe_pseudos/Al.pbe-hgh.UPF
     MD5 check sum: 802bf3c274188c2a448b709cf94527cc
     Pseudo is Norm-conserving, Zval =  3.0
     Generated in analytical, separable form
     Using radial grid of 1135 points,  3 beta functions with:
                l(1) =   0
                l(2) =   0
                l(3) =   1

     atomic species   valence    mass     pseudopotential
        Al             3.00    26.98154     Al( 1.00)

      8 Sym. Ops. (no inversion) found

   Cartesian axes

     site n.     atom                  positions (alat units)
         1           Al  tau(   1) = (   0.0000000   0.0000000   0.0000000  )
         2           Al  tau(   2) = (   0.5000000   0.5000000   0.0000000  )
         3           Al  tau(   3) = (   0.0000000   0.5000000   0.5000000  )
         4           Al  tau(   4) = (   0.5000000   0.0000000   0.5000000  )
         5           Al  tau(   5) = (   0.0000000   0.0000000   1.0000000  )
         6           Al  tau(   6) = (   0.5000000   0.5000000   1.0000000  )
         7           Al  tau(   7) = (   0.0000000   0.5000000   1.5000000  )
         8           Al  tau(   8) = (   0.5000000   0.0000000   1.5000000  )
         9           Al  tau(   9) = (   0.0000000   0.0000000   2.0000000  )
        10           Al  tau(  10) = (   0.5000000   0.5000000   2.0000000  )
        11           Al  tau(  11) = (   0.0000000   0.5000000   2.5000000  )
        12           Al  tau(  12) = (   0.5000000   0.0000000   2.5000000  )
        13           Al  tau(  13) = (   0.0000000   0.0000000   3.0000000  )
        14           Al  tau(  14) = (   0.5000000   0.5000000   3.0000000  )
        15           Al  tau(  15) = (   0.0000000   0.5000000   3.5000000  )
        16           Al  tau(  16) = (   0.5000000   0.0000000   3.5000000  )
        17           Al  tau(  17) = (   0.0000000   0.0000000   4.0000000  )
        18           Al  tau(  18) = (   0.5000000   0.5000000   4.0000000  )
        19           Al  tau(  19) = (   0.0000000   0.5000000   4.5000000  )
        20           Al  tau(  20) = (   0.5000000   0.0000000   4.5000000  )
        21           Al  tau(  21) = (   0.0000000   0.0000000   5.0000000  )
        22           Al  tau(  22) = (   0.5000000   0.5000000   5.0000000  )
        23           Al  tau(  23) = (   0.0000000   0.5000000   5.5000000  )
        24           Al  tau(  24) = (   0.5000000   0.0000000   5.5000000  )
        25           Al  tau(  25) = (   0.0000000   0.0000000   6.0000000  )
        26           Al  tau(  26) = (   0.5000000   0.5000000   6.0000000  )
        27           Al  tau(  27) = (   0.0000000   0.5000000   6.5000000  )
        28           Al  tau(  28) = (   0.5000000   0.0000000   6.5000000  )
        29           Al  tau(  29) = (   0.0000000   0.0000000   7.0000000  )
        30           Al  tau(  30) = (   0.5000000   0.5000000   7.0000000  )
        31           Al  tau(  31) = (   0.0000000   0.5000000   7.5000000  )
        32           Al  tau(  32) = (   0.5000000   0.0000000   7.5000000  )
        33           Al  tau(  33) = (   0.0000000   0.0000000   8.0000000  )
        34           Al  tau(  34) = (   0.5000000   0.5000000   8.0000000  )
        35           Al  tau(  35) = (   0.0000000   0.5000000   8.5000000  )
        36           Al  tau(  36) = (   0.5000000   0.0000000   8.5000000  )
        37           Al  tau(  37) = (   0.0000000   0.0000000   9.0000000  )
        38           Al  tau(  38) = (   0.5000000   0.5000000   9.0000000  )
        39           Al  tau(  39) = (   0.0000000   0.5000000   9.5000000  )
        40           Al  tau(  40) = (   0.5000000   0.0000000   9.5000000  )

     number of k points=    10  Gaussian smearing, width (Ry)=  0.0020
                       cart. coord. in units 2pi/alat
        k(    1) = (   0.0000000   0.0000000   0.0000000), wk =   0.0555556
        k(    2) = (   0.0000000   0.1666667   0.0000000), wk =   0.2222222
        k(    3) = (   0.0000000   0.3333333   0.0000000), wk =   0.2222222
        k(    4) = (   0.0000000  -0.5000000   0.0000000), wk =   0.1111111
        k(    5) = (   0.1666667   0.1666667   0.0000000), wk =   0.2222222
        k(    6) = (   0.1666667   0.3333333   0.0000000), wk =   0.4444444
        k(    7) = (   0.1666667  -0.5000000   0.0000000), wk =   0.2222222
        k(    8) = (   0.3333333   0.3333333   0.0000000), wk =   0.2222222
        k(    9) = (   0.3333333  -0.5000000   0.0000000), wk =   0.2222222
        k(   10) = (  -0.5000000  -0.5000000   0.0000000), wk =   0.0555556

     Initial potential from superposition of free atoms

     starting charge  119.90845, renormalised to  120.00000

     negative rho (up, down):  1.051E-04 0.000E+00
     Starting wfcs are  160 randomized atomic wfcs

     Self-consistent Calculation

     iteration #  1     ecut=    40.00 Ry     beta= 0.70
     Davidson diagonalization with overlap
     ethr =  1.00E-02,  avg # of iterations =  2.7

     total energy              =    -165.80819049 Ry
     Harris-Foulkes estimate   =    -165.91278381 Ry
     estimated scf accuracy    <       3.75071096 Ry

[...]

     negative rho (up, down):  9.534E-06 0.000E+00

[...]

     negative rho (up, down):  2.056E-08 0.000E+00

     total energy              =    -165.80278785 Ry
     Harris-Foulkes estimate   =    -165.80278785 Ry
     estimated scf accuracy    <          1.3E-09 Ry

     iteration # 25     ecut=    40.00 Ry     beta= 0.70
     Davidson diagonalization with overlap
     ethr =  2.84E-13,  avg # of iterations =  2.4

     End of self-consistent calculation

          k = 0.0000 0.0000 0.0000 ( 36445 PWs)   bands (ev):

    -8.9475  -8.8729  -8.7628  -8.6090  -8.4100  -8.1735  -7.8953  -7.5832
    -7.2163  -6.8124  -6.3636  -5.8864  -5.3625  -4.8023  -4.2053  -3.5812
    -2.9145  -2.2205  -1.5040  -0.7592  -0.7592  -0.6901  -0.6901  -0.6717
    -0.5886  -0.5886  -0.4468  -0.4468  -0.4324  -0.2637  -0.2637  -0.0454
    -0.0454   0.2117   0.2117   0.4997   0.4997   0.5409   0.5409   0.6136
     0.6136   0.7198   0.7198   0.8402   0.8402   0.8677   0.8677   1.0189
     1.0588   1.0588   1.2168   1.2168   1.2822   1.2822   1.5414   1.5414
     1.6362   1.6362   1.8125   1.8244   1.8244   2.0834   2.0834   2.1220
     2.1220   2.5758   2.5758   2.6024   2.6024   2.6486   3.1062   3.1062

[...]

          k = 0.3333-0.5000 0.0000 ( 36344 PWs)   bands (ev):

[...]

          k =-0.5000-0.5000 0.0000 ( 36388 PWs)   bands (ev):

    -4.5038  -4.5038  -4.5038  -4.5038  -4.4310  -4.4310  -4.4310  -4.4310
    -4.3239  -4.3239  -4.3239  -4.3239  -4.1745  -4.1745  -4.1745  -4.1745
    -3.9810  -3.9810  -3.9810  -3.9810  -3.7514  -3.7514  -3.7514  -3.7514
    -3.4813  -3.4813  -3.4813  -3.4813  -3.1788  -3.1788  -3.1788  -3.1788
    -2.8247  -2.8247  -2.8247  -2.8247  -2.4238  -2.4238  -2.4238  -2.4238
    -1.9743  -1.9743  -1.9743  -1.9743  -1.5178  -1.5178  -1.5178  -1.5178
    -1.0094  -1.0094  -1.0094  -1.0094  -0.4646  -0.4646  -0.4646  -0.4646
     0.1164   0.1164   0.1164   0.1164   0.7239   0.7239   0.7239   0.7239
     1.3721   1.3721   1.3721   1.3721   2.0447   2.0447   2.0447   2.0447

     the Fermi energy is     2.0874 ev

!    total energy              =    -165.80278785 Ry
     Harris-Foulkes estimate   =    -165.80278785 Ry
     estimated scf accuracy    <          5.3E-12 Ry

     The total energy is the sum of the following terms:

     one-electron contribution =  -16683.07970712 Ry
     hartree contribution      =    8373.33068846 Ry
     xc contribution           =     -63.78719050 Ry
     ewald contribution        =    8207.73389756 Ry
     smearing contrib. (-TS)   =      -0.00047624 Ry

     convergence has been achieved in  25 iterations

     Forces acting on atoms (cartesian axes, Ry/au):

     atom    1 type  1   force =     0.00000000    0.00000000   -0.00175838
     atom    2 type  1   force =     0.00000000    0.00000000   -0.00175838
     atom    3 type  1   force =     0.00000000    0.00000000    0.00492344
     atom    4 type  1   force =     0.00000000    0.00000000    0.00492344
     atom    5 type  1   force =     0.00000000    0.00000000   -0.00260049
     atom    6 type  1   force =     0.00000000    0.00000000   -0.00260049
     atom    7 type  1   force =     0.00000000    0.00000000    0.00030741
     atom    8 type  1   force =     0.00000000    0.00000000    0.00030741
     atom    9 type  1   force =     0.00000000    0.00000000    0.00253939
     atom   10 type  1   force =     0.00000000    0.00000000    0.00253939
     atom   11 type  1   force =     0.00000000    0.00000000   -0.00135162
     atom   12 type  1   force =     0.00000000    0.00000000   -0.00135162
     atom   13 type  1   force =     0.00000000    0.00000000   -0.00049926
     atom   14 type  1   force =     0.00000000    0.00000000   -0.00049926
     atom   15 type  1   force =     0.00000000    0.00000000    0.00064264
     atom   16 type  1   force =     0.00000000    0.00000000    0.00064264
     atom   17 type  1   force =     0.00000000    0.00000000   -0.00137696
     atom   18 type  1   force =     0.00000000    0.00000000   -0.00137696
     atom   19 type  1   force =     0.00000000    0.00000000    0.00373560
     atom   20 type  1   force =     0.00000000    0.00000000    0.00373560
     atom   21 type  1   force =     0.00000000    0.00000000   -0.00373560
     atom   22 type  1   force =     0.00000000    0.00000000   -0.00373560
     atom   23 type  1   force =     0.00000000    0.00000000    0.00137697
     atom   24 type  1   force =     0.00000000    0.00000000    0.00137697
     atom   25 type  1   force =     0.00000000    0.00000000   -0.00064264
     atom   26 type  1   force =     0.00000000    0.00000000   -0.00064264
     atom   27 type  1   force =     0.00000000    0.00000000    0.00049926
     atom   28 type  1   force =     0.00000000    0.00000000    0.00049926
     atom   29 type  1   force =     0.00000000    0.00000000    0.00135162
     atom   30 type  1   force =     0.00000000    0.00000000    0.00135162
     atom   31 type  1   force =     0.00000000    0.00000000   -0.00253939
     atom   32 type  1   force =     0.00000000    0.00000000   -0.00253939
     atom   33 type  1   force =     0.00000000    0.00000000   -0.00030741
     atom   34 type  1   force =     0.00000000    0.00000000   -0.00030741
     atom   35 type  1   force =     0.00000000    0.00000000    0.00260049
     atom   36 type  1   force =     0.00000000    0.00000000    0.00260049
     atom   37 type  1   force =     0.00000000    0.00000000   -0.00492344
     atom   38 type  1   force =     0.00000000    0.00000000   -0.00492344
     atom   39 type  1   force =     0.00000000    0.00000000    0.00175838
     atom   40 type  1   force =     0.00000000    0.00000000    0.00175838

     Total force =     0.015359     Total SCF correction =     0.000004

     Computing stress (Cartesian axis) and pressure

          total   stress  (Ry/bohr**3)                   (kbar)     P=       -5.56
  -0.00004242   0.00000000   0.00000000           -6.24        0.00        0.00
   0.00000000  -0.00004242   0.00000000            0.00       -6.24        0.00
   0.00000000   0.00000000  -0.00002849            0.00        0.00       -4.19

     Writing output data file ./pwscf.save/

     General routines

     Parallel routines

   This run was terminated on:  16: 1:15  21Aug2020

   JOB DONE.